52108 36646
44578 532
1147 53650
8755 64708
13268 41627
4748 41040
20573 18962
34167 26543
9222 28698
44072 39587
44981 40294
23570 54811
33827 36259
63398 1389
472 18563
19811 11116
62099 23397
35917 12925
39777 20480
26818 17346
58910 38987
42235 55839
20699 62832
52009 19905
25601 64863
51105 61291
64916 8628
64171 31136
7934 8194
12720 43231
29255 24973
33143 31972
61773 34348
18835 40337
40050 19879
21151 10992
32693 2918
61666 21180
28954 30514
30536 15843
33770 32936
46046 15271
43941 14196
50826 44313
13308 54893
33806 47419
1623 52321
11372 60586
64447 11389
36833 30461
23439 13330
34211 19332
52503 42863
48489 26992
57657 55022
47778 30215
37643 33275
16922 7144
14998 6055
46169 10240
40308 31259
54267 62710
5290 50825
